NAME : cgl_58.3652.tour
COMMENT : Length = 3652
COMMENT : Found by LKH-3 [Keld Helsgaun] Thu Jun 26 21:26:49 2025
TYPE : TOUR
DIMENSION : 59
TOUR_SECTION
44
50
42
33
45
39
48
47
54
37
35
23
11
15
26
8
7
21
16
13
24
12
19
14
20
27
22
6
17
10
25
9
18
30
28
32
29
31
5
4
3
2
1
59
58
57
46
40
34
51
49
38
53
41
36
55
52
43
56
-1
EOF
